p cnf 961 2466
51 -694 -695 0
-51 694 0
-51 695 0
52 -51 -3 0
-52 51 0
-52 3 0
53 -696 -697 0
-53 696 0
-53 697 0
54 -53 -698 0
-54 53 0
-54 698 0
55 -699 -700 0
-55 699 0
-55 700 0
56 -8 -701 0
-56 8 0
-56 701 0
57 -56 -702 0
-57 56 0
-57 702 0
58 -703 -55 0
-58 703 0
-58 55 0
59 -704 -701 0
-59 704 0
-59 701 0
60 -59 -11 0
-60 59 0
-60 11 0
61 -705 -58 0
-61 705 0
-61 58 0
62 -706 -4 0
-62 706 0
-62 4 0
63 -62 -707 0
-63 62 0
-63 707 0
64 -708 -61 0
-64 708 0
-64 61 0
65 -14 -13 0
-65 14 0
-65 13 0
66 -65 -709 0
-66 65 0
-66 709 0
67 -710 -64 0
-67 710 0
-67 64 0
68 -16 -695 0
-68 16 0
-68 695 0
69 -68 -711 0
-69 68 0
-69 711 0
70 -712 -67 0
-70 712 0
-70 67 0
71 -18 -4 0
-71 18 0
-71 4 0
72 -71 -19 0
-72 71 0
-72 19 0
73 -713 -70 0
-73 713 0
-73 70 0
74 -714 -715 0
-74 714 0
-74 715 0
75 -74 -711 0
-75 74 0
-75 711 0
76 -716 -73 0
-76 716 0
-76 73 0
77 -717 -14 0
-77 717 0
-77 14 0
78 -77 -23 0
-78 77 0
-78 23 0
79 -718 -76 0
-79 718 0
-79 76 0
80 -719 -24 0
-80 719 0
-80 24 0
81 -80 -696 0
-81 80 0
-81 696 0
82 -720 -79 0
-82 720 0
-82 79 0
83 -26 -715 0
-83 26 0
-83 715 0
84 -83 -19 0
-84 83 0
-84 19 0
85 -721 -82 0
-85 721 0
-85 82 0
86 -722 -18 0
-86 722 0
-86 18 0
87 -86 -17 0
-87 86 0
-87 17 0
88 -723 -85 0
-88 723 0
-88 85 0
89 -29 -724 0
-89 29 0
-89 724 0
90 -89 -14 0
-90 89 0
-90 14 0
91 -725 -88 0
-91 725 0
-91 88 0
92 -26 -9 0
-92 26 0
-92 9 0
93 -92 -6 0
-93 92 0
-93 6 0
94 -726 -91 0
-94 726 0
-94 91 0
95 -31 -727 0
-95 31 0
-95 727 0
96 -95 -8 0
-96 95 0
-96 8 0
97 -728 -94 0
-97 728 0
-97 94 0
98 -32 -729 0
-98 32 0
-98 729 0
99 -98 -719 0
-99 98 0
-99 719 0
100 -730 -97 0
-100 730 0
-100 97 0
101 -34 -731 0
-101 34 0
-101 731 0
102 -101 -732 0
-102 101 0
-102 732 0
103 -733 -100 0
-103 733 0
-103 100 0
104 -734 -32 0
-104 734 0
-104 32 0
105 -104 -706 0
-105 104 0
-105 706 0
106 -735 -103 0
-106 735 0
-106 103 0
107 -11 -697 0
-107 11 0
-107 697 0
108 -107 -37 0
-108 107 0
-108 37 0
109 -736 -106 0
-109 736 0
-109 106 0
110 -26 -737 0
-110 26 0
-110 737 0
111 -110 -738 0
-111 110 0
-111 738 0
112 -739 -109 0
-112 739 0
-112 109 0
113 -20 -10 0
-113 20 0
-113 10 0
114 -113 -2 0
-114 113 0
-114 2 0
115 -740 -112 0
-115 740 0
-115 112 0
116 -16 -701 0
-116 16 0
-116 701 0
117 -116 -12 0
-117 116 0
-117 12 0
118 -741 -115 0
-118 741 0
-118 115 0
119 -22 -715 0
-119 22 0
-119 715 0
120 -119 -18 0
-120 119 0
-120 18 0
121 -742 -118 0
-121 742 0
-121 118 0
122 -731 -743 0
-122 731 0
-122 743 0
123 -122 -706 0
-123 122 0
-123 706 0
124 -744 -121 0
-124 744 0
-124 121 0
125 -745 -36 0
-125 745 0
-125 36 0
126 -125 -722 0
-126 125 0
-126 722 0
127 -746 -124 0
-127 746 0
-127 124 0
128 -36 -714 0
-128 36 0
-128 714 0
129 -128 -18 0
-129 128 0
-129 18 0
130 -747 -127 0
-130 747 0
-130 127 0
131 -748 -702 0
-131 748 0
-131 702 0
132 -131 -12 0
-132 131 0
-132 12 0
133 -749 -130 0
-133 749 0
-133 130 0
134 -750 -751 0
-134 750 0
-134 751 0
135 -134 -8 0
-135 134 0
-135 8 0
136 -752 -133 0
-136 752 0
-136 133 0
137 -42 -753 0
-137 42 0
-137 753 0
138 -137 -43 0
-138 137 0
-138 43 0
139 -754 -136 0
-139 754 0
-139 136 0
140 -755 -724 0
-140 755 0
-140 724 0
141 -140 -30 0
-141 140 0
-141 30 0
142 -756 -139 0
-142 756 0
-142 139 0
143 -757 -696 0
-143 757 0
-143 696 0
144 -143 -15 0
-144 143 0
-144 15 0
145 -758 -142 0
-145 758 0
-145 142 0
146 -24 -737 0
-146 24 0
-146 737 0
147 -146 -698 0
-147 146 0
-147 698 0
148 -759 -145 0
-148 759 0
-148 145 0
149 -23 -702 0
-149 23 0
-149 702 0
150 -149 -694 0
-150 149 0
-150 694 0
151 -760 -148 0
-151 760 0
-151 148 0
152 -757 -761 0
-152 757 0
-152 761 0
153 -152 -36 0
-153 152 0
-153 36 0
154 -762 -151 0
-154 762 0
-154 151 0
155 -39 -763 0
-155 39 0
-155 763 0
156 -155 -35 0
-156 155 0
-156 35 0
157 -764 -154 0
-157 764 0
-157 154 0
158 -26 -25 0
-158 26 0
-158 25 0
159 -158 -732 0
-159 158 0
-159 732 0
160 -765 -157 0
-160 765 0
-160 157 0
161 -717 -696 0
-161 717 0
-161 696 0
162 -161 -766 0
-162 161 0
-162 766 0
163 -767 -160 0
-163 767 0
-163 160 0
164 -768 -33 0
-164 768 0
-164 33 0
165 -164 -769 0
-165 164 0
-165 769 0
166 -770 -163 0
-166 770 0
-166 163 0
167 -731 -737 0
-167 731 0
-167 737 0
168 -167 -27 0
-168 167 0
-168 27 0
169 -771 -166 0
-169 771 0
-169 166 0
170 -47 -761 0
-170 47 0
-170 761 0
171 -170 -711 0
-171 170 0
-171 711 0
172 -772 -169 0
-172 772 0
-172 169 0
173 -755 -709 0
-173 755 0
-173 709 0
174 -173 -698 0
-174 173 0
-174 698 0
175 -773 -172 0
-175 773 0
-175 172 0
176 -113 -774 0
-176 113 0
-176 774 0
177 -775 -175 0
-177 775 0
-177 175 0
178 -25 -748 0
-178 25 0
-178 748 0
179 -178 -776 0
-179 178 0
-179 776 0
180 -777 -177 0
-180 777 0
-180 177 0
181 -44 -10 0
-181 44 0
-181 10 0
182 -181 -50 0
-182 181 0
-182 50 0
183 -778 -180 0
-183 778 0
-183 180 0
184 -779 -704 0
-184 779 0
-184 704 0
185 -184 -12 0
-185 184 0
-185 12 0
186 -780 -183 0
-186 780 0
-186 183 0
187 -158 -19 0
-187 158 0
-187 19 0
188 -781 -186 0
-188 781 0
-188 186 0
189 -29 -13 0
-189 29 0
-189 13 0
190 -189 -23 0
-190 189 0
-190 23 0
191 -782 -188 0
-191 782 0
-191 188 0
192 -753 -13 0
-192 753 0
-192 13 0
193 -192 -1 0
-193 192 0
-193 1 0
194 -783 -191 0
-194 783 0
-194 191 0
195 -763 -20 0
-195 763 0
-195 20 0
196 -195 -39 0
-196 195 0
-196 39 0
197 -784 -194 0
-197 784 0
-197 194 0
198 -24 -21 0
-198 24 0
-198 21 0
199 -198 -702 0
-199 198 0
-199 702 0
200 -785 -197 0
-200 785 0
-200 197 0
201 -45 -704 0
-201 45 0
-201 704 0
202 -201 -786 0
-202 201 0
-202 786 0
203 -787 -200 0
-203 787 0
-203 200 0
204 -753 -20 0
-204 753 0
-204 20 0
205 -204 -748 0
-205 204 0
-205 748 0
206 -788 -203 0
-206 788 0
-206 203 0
207 -44 -28 0
-207 44 0
-207 28 0
208 -207 -769 0
-208 207 0
-208 769 0
209 -789 -206 0
-209 789 0
-209 206 0
210 -29 -25 0
-210 29 0
-210 25 0
211 -210 -737 0
-211 210 0
-211 737 0
212 -790 -209 0
-212 790 0
-212 209 0
213 -2 -695 0
-213 2 0
-213 695 0
214 -213 -35 0
-214 213 0
-214 35 0
215 -791 -212 0
-215 791 0
-215 212 0
216 -757 -724 0
-216 757 0
-216 724 0
217 -216 -10 0
-217 216 0
-217 10 0
218 -792 -215 0
-218 792 0
-218 215 0
219 -21 -20 0
-219 21 0
-219 20 0
220 -219 -34 0
-220 219 0
-220 34 0
221 -793 -218 0
-221 793 0
-221 218 0
222 -794 -709 0
-222 794 0
-222 709 0
223 -222 -46 0
-223 222 0
-223 46 0
224 -795 -221 0
-224 795 0
-224 221 0
225 -796 -797 0
-225 796 0
-225 797 0
226 -225 -37 0
-226 225 0
-226 37 0
227 -798 -224 0
-227 798 0
-227 224 0
228 -14 -697 0
-228 14 0
-228 697 0
229 -228 -797 0
-229 228 0
-229 797 0
230 -799 -227 0
-230 799 0
-230 227 0
231 -753 -729 0
-231 753 0
-231 729 0
232 -231 -738 0
-232 231 0
-232 738 0
233 -800 -230 0
-233 800 0
-233 230 0
234 -20 -698 0
-234 20 0
-234 698 0
235 -234 -776 0
-235 234 0
-235 776 0
236 -801 -233 0
-236 801 0
-236 233 0
237 -802 -743 0
-237 802 0
-237 743 0
238 -237 -711 0
-238 237 0
-238 711 0
239 -803 -236 0
-239 803 0
-239 236 0
240 -757 -717 0
-240 757 0
-240 717 0
241 -240 -9 0
-241 240 0
-241 9 0
242 -804 -239 0
-242 804 0
-242 239 0
243 -33 -722 0
-243 33 0
-243 722 0
244 -243 -695 0
-244 243 0
-244 695 0
245 -805 -242 0
-245 805 0
-245 242 0
246 -738 -11 0
-246 738 0
-246 11 0
247 -246 -707 0
-247 246 0
-247 707 0
248 -806 -245 0
-248 806 0
-248 245 0
249 -755 -40 0
-249 755 0
-249 40 0
250 -249 -737 0
-250 249 0
-250 737 0
251 -807 -248 0
-251 807 0
-251 248 0
252 -18 -695 0
-252 18 0
-252 695 0
253 -252 -12 0
-253 252 0
-253 12 0
254 -808 -251 0
-254 808 0
-254 251 0
255 -74 -17 0
-255 74 0
-255 17 0
256 -809 -254 0
-256 809 0
-256 254 0
257 -768 -31 0
-257 768 0
-257 31 0
258 -257 -701 0
-258 257 0
-258 701 0
259 -810 -256 0
-259 810 0
-259 256 0
260 -28 -4 0
-260 28 0
-260 4 0
261 -260 -755 0
-261 260 0
-261 755 0
262 -811 -259 0
-262 811 0
-262 259 0
263 -31 -812 0
-263 31 0
-263 812 0
264 -263 -702 0
-264 263 0
-264 702 0
265 -813 -262 0
-265 813 0
-265 262 0
266 -234 -732 0
-266 234 0
-266 732 0
267 -814 -265 0
-267 814 0
-267 265 0
268 -30 -21 0
-268 30 0
-268 21 0
269 -268 -748 0
-269 268 0
-269 748 0
270 -815 -267 0
-270 815 0
-270 267 0
271 -35 -779 0
-271 35 0
-271 779 0
272 -271 -774 0
-272 271 0
-272 774 0
273 -816 -270 0
-273 816 0
-273 270 0
274 -745 -748 0
-274 745 0
-274 748 0
275 -274 -46 0
-275 274 0
-275 46 0
276 -817 -273 0
-276 817 0
-276 273 0
277 -757 -734 0
-277 757 0
-277 734 0
278 -277 -704 0
-278 277 0
-278 704 0
279 -818 -276 0
-279 818 0
-279 276 0
280 -745 -22 0
-280 745 0
-280 22 0
281 -280 -779 0
-281 280 0
-281 779 0
282 -819 -279 0
-282 819 0
-282 279 0
283 -20 -7 0
-283 20 0
-283 7 0
284 -283 -711 0
-284 283 0
-284 711 0
285 -820 -282 0
-285 820 0
-285 282 0
286 -761 -5 0
-286 761 0
-286 5 0
287 -286 -9 0
-287 286 0
-287 9 0
288 -821 -285 0
-288 821 0
-288 285 0
289 -766 -22 0
-289 766 0
-289 22 0
290 -289 -50 0
-290 289 0
-290 50 0
291 -822 -288 0
-291 822 0
-291 288 0
292 -755 -9 0
-292 755 0
-292 9 0
293 -292 -711 0
-293 292 0
-293 711 0
294 -823 -291 0
-294 823 0
-294 291 0
295 -763 -4 0
-295 763 0
-295 4 0
296 -295 -794 0
-296 295 0
-296 794 0
297 -824 -294 0
-297 824 0
-297 294 0
298 -24 -2 0
-298 24 0
-298 2 0
299 -298 -47 0
-299 298 0
-299 47 0
300 -825 -297 0
-300 825 0
-300 297 0
301 -26 -717 0
-301 26 0
-301 717 0
302 -301 -779 0
-302 301 0
-302 779 0
303 -826 -300 0
-303 826 0
-303 300 0
304 -751 -715 0
-304 751 0
-304 715 0
305 -304 -698 0
-305 304 0
-305 698 0
306 -827 -303 0
-306 827 0
-306 303 0
307 -195 -774 0
-307 195 0
-307 774 0
308 -828 -306 0
-308 828 0
-308 306 0
309 -30 -702 0
-309 30 0
-309 702 0
310 -309 -776 0
-310 309 0
-310 776 0
311 -829 -308 0
-311 829 0
-311 308 0
312 -32 -719 0
-312 32 0
-312 719 0
313 -312 -17 0
-313 312 0
-313 17 0
314 -830 -311 0
-314 830 0
-314 311 0
315 -717 -786 0
-315 717 0
-315 786 0
316 -315 -774 0
-316 315 0
-316 774 0
317 -831 -314 0
-317 831 0
-317 314 0
318 -40 -16 0
-318 40 0
-318 16 0
319 -318 -832 0
-319 318 0
-319 832 0
320 -833 -317 0
-320 833 0
-320 317 0
321 -727 -9 0
-321 727 0
-321 9 0
322 -321 -35 0
-322 321 0
-322 35 0
323 -834 -320 0
-323 834 0
-323 320 0
324 -33 -4 0
-324 33 0
-324 4 0
325 -324 -832 0
-325 324 0
-325 832 0
326 -835 -323 0
-326 835 0
-326 323 0
327 -731 -30 0
-327 731 0
-327 30 0
328 -327 -48 0
-328 327 0
-328 48 0
329 -836 -326 0
-329 836 0
-329 326 0
330 -36 -701 0
-330 36 0
-330 701 0
331 -330 -702 0
-331 330 0
-331 702 0
332 -837 -329 0
-332 837 0
-332 329 0
333 -26 -8 0
-333 26 0
-333 8 0
334 -333 -2 0
-334 333 0
-334 2 0
335 -838 -332 0
-335 838 0
-335 332 0
336 -755 -731 0
-336 755 0
-336 731 0
337 -336 -722 0
-337 336 0
-337 722 0
338 -839 -335 0
-338 839 0
-338 335 0
339 -729 -701 0
-339 729 0
-339 701 0
340 -339 -802 0
-340 339 0
-340 802 0
341 -840 -338 0
-341 840 0
-341 338 0
342 -753 -715 0
-342 753 0
-342 715 0
343 -342 -8 0
-343 342 0
-343 8 0
344 -841 -341 0
-344 841 0
-344 341 0
345 -20 -9 0
-345 20 0
-345 9 0
346 -345 -38 0
-346 345 0
-346 38 0
347 -842 -344 0
-347 842 0
-347 344 0
348 -47 -696 0
-348 47 0
-348 696 0
349 -348 -48 0
-349 348 0
-349 48 0
350 -843 -347 0
-350 843 0
-350 347 0
351 -714 -14 0
-351 714 0
-351 14 0
352 -351 -2 0
-352 351 0
-352 2 0
353 -844 -350 0
-353 844 0
-353 350 0
354 -44 -6 0
-354 44 0
-354 6 0
355 -354 -707 0
-355 354 0
-355 707 0
356 -845 -353 0
-356 845 0
-356 353 0
357 -39 -698 0
-357 39 0
-357 698 0
358 -357 -774 0
-358 357 0
-358 774 0
359 -846 -356 0
-359 846 0
-359 356 0
360 -44 -9 0
-360 44 0
-360 9 0
361 -360 -766 0
-361 360 0
-361 766 0
362 -847 -359 0
-362 847 0
-362 359 0
363 -729 -717 0
-363 729 0
-363 717 0
364 -363 -832 0
-364 363 0
-364 832 0
365 -848 -362 0
-365 848 0
-365 362 0
366 -757 -5 0
-366 757 0
-366 5 0
367 -366 -732 0
-367 366 0
-367 732 0
368 -849 -365 0
-368 849 0
-368 365 0
369 -45 -738 0
-369 45 0
-369 738 0
370 -369 -3 0
-370 369 0
-370 3 0
371 -850 -368 0
-371 850 0
-371 368 0
372 -851 -704 0
-372 851 0
-372 704 0
373 -372 -711 0
-373 372 0
-373 711 0
374 -852 -371 0
-374 852 0
-374 371 0
375 -768 -734 0
-375 768 0
-375 734 0
376 -375 -18 0
-376 375 0
-376 18 0
377 -853 -374 0
-377 853 0
-377 374 0
378 -22 -704 0
-378 22 0
-378 704 0
379 -378 -766 0
-379 378 0
-379 766 0
380 -854 -377 0
-380 854 0
-380 377 0
381 -722 -25 0
-381 722 0
-381 25 0
382 -381 -12 0
-382 381 0
-382 12 0
383 -855 -380 0
-383 855 0
-383 380 0
384 -27 -13 0
-384 27 0
-384 13 0
385 -384 -34 0
-385 384 0
-385 34 0
386 -856 -383 0
-386 856 0
-386 383 0
387 -763 -717 0
-387 763 0
-387 717 0
388 -387 -776 0
-388 387 0
-388 776 0
389 -857 -386 0
-389 857 0
-389 386 0
390 -779 -737 0
-390 779 0
-390 737 0
391 -390 -3 0
-391 390 0
-391 3 0
392 -858 -389 0
-392 858 0
-392 389 0
393 -44 -31 0
-393 44 0
-393 31 0
394 -393 -719 0
-394 393 0
-394 719 0
395 -859 -392 0
-395 859 0
-395 392 0
396 -719 -13 0
-396 719 0
-396 13 0
397 -396 -797 0
-397 396 0
-397 797 0
398 -860 -395 0
-398 860 0
-398 395 0
399 -43 -755 0
-399 43 0
-399 755 0
400 -399 -776 0
-400 399 0
-400 776 0
401 -861 -398 0
-401 861 0
-401 398 0
402 -30 -695 0
-402 30 0
-402 695 0
403 -402 -711 0
-403 402 0
-403 711 0
404 -862 -401 0
-404 862 0
-404 401 0
405 -240 -34 0
-405 240 0
-405 34 0
406 -863 -404 0
-406 863 0
-406 404 0
407 -45 -717 0
-407 45 0
-407 717 0
408 -407 -17 0
-408 407 0
-408 17 0
409 -864 -406 0
-409 864 0
-409 406 0
410 -24 -16 0
-410 24 0
-410 16 0
411 -410 -774 0
-411 410 0
-411 774 0
412 -865 -409 0
-412 865 0
-412 409 0
413 -40 -779 0
-413 40 0
-413 779 0
414 -413 -698 0
-414 413 0
-414 698 0
415 -866 -412 0
-415 866 0
-415 412 0
416 -719 -697 0
-416 719 0
-416 697 0
417 -416 -711 0
-417 416 0
-417 711 0
418 -867 -415 0
-418 867 0
-418 415 0
419 -42 -745 0
-419 42 0
-419 745 0
420 -419 -2 0
-420 419 0
-420 2 0
421 -868 -418 0
-421 868 0
-421 418 0
422 -727 -27 0
-422 727 0
-422 27 0
423 -422 -17 0
-423 422 0
-423 17 0
424 -869 -421 0
-424 869 0
-424 421 0
425 -29 -698 0
-425 29 0
-425 698 0
426 -425 -37 0
-426 425 0
-426 37 0
427 -870 -424 0
-427 870 0
-427 424 0
428 -20 -851 0
-428 20 0
-428 851 0
429 -428 -738 0
-429 428 0
-429 738 0
430 -871 -427 0
-430 871 0
-430 427 0
431 -20 -14 0
-431 20 0
-431 14 0
432 -431 -23 0
-432 431 0
-432 23 0
433 -872 -430 0
-433 872 0
-433 430 0
434 -750 -734 0
-434 750 0
-434 734 0
435 -434 -711 0
-435 434 0
-435 711 0
436 -873 -433 0
-436 873 0
-436 433 0
437 -33 -763 0
-437 33 0
-437 763 0
438 -437 -48 0
-438 437 0
-438 48 0
439 -874 -436 0
-439 874 0
-439 436 0
440 -796 -15 0
-440 796 0
-440 15 0
441 -440 -17 0
-441 440 0
-441 17 0
442 -875 -439 0
-442 875 0
-442 439 0
443 -33 -694 0
-443 33 0
-443 694 0
444 -443 -796 0
-444 443 0
-444 796 0
445 -876 -442 0
-445 876 0
-445 442 0
446 -40 -722 0
-446 40 0
-446 722 0
447 -446 -797 0
-447 446 0
-447 797 0
448 -877 -445 0
-448 877 0
-448 445 0
449 -31 -18 0
-449 31 0
-449 18 0
450 -449 -27 0
-450 449 0
-450 27 0
451 -878 -448 0
-451 878 0
-451 448 0
452 -46 -812 0
-452 46 0
-452 812 0
453 -452 -3 0
-453 452 0
-453 3 0
454 -879 -451 0
-454 879 0
-454 451 0
455 -45 -750 0
-455 45 0
-455 750 0
456 -455 -14 0
-456 455 0
-456 14 0
457 -880 -454 0
-457 880 0
-457 454 0
458 -731 -23 0
-458 731 0
-458 23 0
459 -458 -769 0
-459 458 0
-459 769 0
460 -881 -457 0
-460 881 0
-460 457 0
461 -714 -10 0
-461 714 0
-461 10 0
462 -461 -43 0
-462 461 0
-462 43 0
463 -882 -460 0
-463 882 0
-463 460 0
464 -44 -745 0
-464 44 0
-464 745 0
465 -464 -743 0
-465 464 0
-465 743 0
466 -883 -463 0
-466 883 0
-466 463 0
467 -796 -727 0
-467 796 0
-467 727 0
468 -467 -37 0
-468 467 0
-468 37 0
469 -884 -466 0
-469 884 0
-469 466 0
470 -18 -8 0
-470 18 0
-470 8 0
471 -470 -695 0
-471 470 0
-471 695 0
472 -885 -469 0
-472 885 0
-472 469 0
473 -22 -12 0
-473 22 0
-473 12 0
474 -473 -774 0
-474 473 0
-474 774 0
475 -886 -472 0
-475 886 0
-475 472 0
476 -734 -7 0
-476 734 0
-476 7 0
477 -476 -779 0
-477 476 0
-477 779 0
478 -887 -475 0
-478 887 0
-478 475 0
479 -751 -724 0
-479 751 0
-479 724 0
480 -479 -21 0
-480 479 0
-480 21 0
481 -888 -478 0
-481 888 0
-481 478 0
482 -29 -22 0
-482 29 0
-482 22 0
483 -482 -732 0
-483 482 0
-483 732 0
484 -889 -481 0
-484 889 0
-484 481 0
485 -45 -39 0
-485 45 0
-485 39 0
486 -485 -17 0
-486 485 0
-486 17 0
487 -890 -484 0
-487 890 0
-487 484 0
488 -734 -16 0
-488 734 0
-488 16 0
489 -488 -786 0
-489 488 0
-489 786 0
490 -891 -487 0
-490 891 0
-490 487 0
491 -45 -30 0
-491 45 0
-491 30 0
492 -491 -892 0
-492 491 0
-492 892 0
493 -893 -490 0
-493 893 0
-493 490 0
494 -750 -717 0
-494 750 0
-494 717 0
495 -494 -786 0
-495 494 0
-495 786 0
496 -894 -493 0
-496 894 0
-496 493 0
497 -737 -701 0
-497 737 0
-497 701 0
498 -497 -832 0
-498 497 0
-498 832 0
499 -895 -496 0
-499 895 0
-499 496 0
500 -9 -701 0
-500 9 0
-500 701 0
501 -500 -11 0
-501 500 0
-501 11 0
502 -896 -499 0
-502 896 0
-502 499 0
503 -39 -36 0
-503 39 0
-503 36 0
504 -503 -779 0
-504 503 0
-504 779 0
505 -897 -502 0
-505 897 0
-505 502 0
506 -39 -5 0
-506 39 0
-506 5 0
507 -506 -779 0
-507 506 0
-507 779 0
508 -898 -505 0
-508 898 0
-508 505 0
509 -23 -7 0
-509 23 0
-509 7 0
510 -509 -711 0
-510 509 0
-510 711 0
511 -899 -508 0
-511 899 0
-511 508 0
512 -32 -20 0
-512 32 0
-512 20 0
513 -512 -711 0
-513 512 0
-513 711 0
514 -900 -511 0
-514 900 0
-514 511 0
515 -722 -748 0
-515 722 0
-515 748 0
516 -515 -698 0
-516 515 0
-516 698 0
517 -901 -514 0
-517 901 0
-517 514 0
518 -832 -18 0
-518 832 0
-518 18 0
519 -518 -47 0
-519 518 0
-519 47 0
520 -902 -517 0
-520 902 0
-520 517 0
521 -696 -4 0
-521 696 0
-521 4 0
522 -521 -48 0
-522 521 0
-522 48 0
523 -903 -520 0
-523 903 0
-523 520 0
524 -29 -4 0
-524 29 0
-524 4 0
525 -524 -797 0
-525 524 0
-525 797 0
526 -904 -523 0
-526 904 0
-526 523 0
527 -33 -704 0
-527 33 0
-527 704 0
528 -527 -27 0
-528 527 0
-528 27 0
529 -905 -526 0
-529 905 0
-529 526 0
530 -43 -33 0
-530 43 0
-530 33 0
531 -530 -695 0
-531 530 0
-531 695 0
532 -906 -529 0
-532 906 0
-532 529 0
533 -832 -696 0
-533 832 0
-533 696 0
534 -533 -769 0
-534 533 0
-534 769 0
535 -907 -532 0
-535 907 0
-535 532 0
536 -42 -30 0
-536 42 0
-536 30 0
537 -536 -731 0
-537 536 0
-537 731 0
538 -908 -535 0
-538 908 0
-538 535 0
539 -769 -753 0
-539 769 0
-539 753 0
540 -539 -711 0
-540 539 0
-540 711 0
541 -909 -538 0
-541 909 0
-541 538 0
542 -796 -23 0
-542 796 0
-542 23 0
543 -542 -49 0
-543 542 0
-543 49 0
544 -910 -541 0
-544 910 0
-544 541 0
545 -45 -748 0
-545 45 0
-545 748 0
546 -545 -50 0
-546 545 0
-546 50 0
547 -911 -544 0
-547 911 0
-547 544 0
548 -722 -717 0
-548 722 0
-548 717 0
549 -548 -15 0
-549 548 0
-549 15 0
550 -912 -547 0
-550 912 0
-550 547 0
551 -42 -715 0
-551 42 0
-551 715 0
552 -551 -14 0
-552 551 0
-552 14 0
553 -913 -550 0
-553 913 0
-553 550 0
554 -768 -697 0
-554 768 0
-554 697 0
555 -554 -738 0
-555 554 0
-555 738 0
556 -914 -553 0
-556 914 0
-556 553 0
557 -354 -769 0
-557 354 0
-557 769 0
558 -915 -556 0
-558 915 0
-558 556 0
559 -734 -779 0
-559 734 0
-559 779 0
560 -559 -738 0
-560 559 0
-560 738 0
561 -916 -558 0
-561 916 0
-561 558 0
562 -33 -19 0
-562 33 0
-562 19 0
563 -562 -38 0
-563 562 0
-563 38 0
564 -917 -561 0
-564 917 0
-564 561 0
565 -35 -4 0
-565 35 0
-565 4 0
566 -565 -38 0
-566 565 0
-566 38 0
567 -918 -564 0
-567 918 0
-567 564 0
568 -47 -732 0
-568 47 0
-568 732 0
569 -568 -707 0
-569 568 0
-569 707 0
570 -919 -567 0
-570 919 0
-570 567 0
571 -745 -704 0
-571 745 0
-571 704 0
572 -571 -2 0
-572 571 0
-572 2 0
573 -920 -570 0
-573 920 0
-573 570 0
574 -751 -8 0
-574 751 0
-574 8 0
575 -574 -802 0
-575 574 0
-575 802 0
576 -921 -573 0
-576 921 0
-576 573 0
577 -22 -4 0
-577 22 0
-577 4 0
578 -577 -766 0
-578 577 0
-578 766 0
579 -922 -576 0
-579 922 0
-579 576 0
580 -6 -1 0
-580 6 0
-580 1 0
581 -580 -35 0
-581 580 0
-581 35 0
582 -923 -579 0
-582 923 0
-582 579 0
583 -31 -748 0
-583 31 0
-583 748 0
584 -583 -34 0
-584 583 0
-584 34 0
585 -924 -582 0
-585 924 0
-585 582 0
586 -724 -22 0
-586 724 0
-586 22 0
587 -586 -729 0
-587 586 0
-587 729 0
588 -925 -585 0
-588 925 0
-588 585 0
589 -40 -812 0
-589 40 0
-589 812 0
590 -589 -694 0
-590 589 0
-590 694 0
591 -926 -588 0
-591 926 0
-591 588 0
592 -745 -761 0
-592 745 0
-592 761 0
593 -592 -779 0
-593 592 0
-593 779 0
594 -927 -591 0
-594 927 0
-594 591 0
595 -39 -30 0
-595 39 0
-595 30 0
596 -595 -3 0
-596 595 0
-596 3 0
597 -928 -594 0
-597 928 0
-597 594 0
598 -586 -743 0
-598 586 0
-598 743 0
599 -929 -597 0
-599 929 0
-599 597 0
600 -731 -21 0
-600 731 0
-600 21 0
601 -600 -776 0
-601 600 0
-601 776 0
602 -930 -599 0
-602 930 0
-602 599 0
603 -32 -763 0
-603 32 0
-603 763 0
604 -603 -709 0
-604 603 0
-604 709 0
605 -931 -602 0
-605 931 0
-605 602 0
606 -9 -694 0
-606 9 0
-606 694 0
607 -606 -732 0
-607 606 0
-607 732 0
608 -932 -605 0
-608 932 0
-608 605 0
609 -27 -5 0
-609 27 0
-609 5 0
610 -609 -769 0
-610 609 0
-610 769 0
611 -933 -608 0
-611 933 0
-611 608 0
612 -29 -729 0
-612 29 0
-612 729 0
613 -612 -16 0
-613 612 0
-613 16 0
614 -934 -611 0
-614 934 0
-614 611 0
615 -32 -12 0
-615 32 0
-615 12 0
616 -615 -776 0
-616 615 0
-616 776 0
617 -935 -614 0
-617 935 0
-617 614 0
618 -797 -761 0
-618 797 0
-618 761 0
619 -618 -774 0
-619 618 0
-619 774 0
620 -936 -617 0
-620 936 0
-620 617 0
621 -32 -4 0
-621 32 0
-621 4 0
622 -621 -769 0
-622 621 0
-622 769 0
623 -937 -620 0
-623 937 0
-623 620 0
624 -24 -709 0
-624 24 0
-624 709 0
625 -624 -732 0
-625 624 0
-625 732 0
626 -938 -623 0
-626 938 0
-626 623 0
627 -750 -695 0
-627 750 0
-627 695 0
628 -627 -46 0
-628 627 0
-628 46 0
629 -939 -626 0
-629 939 0
-629 626 0
630 -28 -715 0
-630 28 0
-630 715 0
631 -630 -3 0
-631 630 0
-631 3 0
632 -940 -629 0
-632 940 0
-632 629 0
633 -796 -732 0
-633 796 0
-633 732 0
634 -633 -769 0
-634 633 0
-634 769 0
635 -941 -632 0
-635 941 0
-635 632 0
636 -734 -18 0
-636 734 0
-636 18 0
637 -636 -37 0
-637 636 0
-637 37 0
638 -942 -635 0
-638 942 0
-638 635 0
639 -41 -29 0
-639 41 0
-639 29 0
640 -639 -23 0
-640 639 0
-640 23 0
641 -943 -638 0
-641 943 0
-641 638 0
642 -715 -748 0
-642 715 0
-642 748 0
643 -642 -892 0
-643 642 0
-643 892 0
644 -944 -641 0
-644 944 0
-644 641 0
645 -26 -18 0
-645 26 0
-645 18 0
646 -645 -15 0
-646 645 0
-646 15 0
647 -945 -644 0
-647 945 0
-647 644 0
648 -31 -719 0
-648 31 0
-648 719 0
649 -648 -15 0
-649 648 0
-649 15 0
650 -946 -647 0
-650 946 0
-650 647 0
651 -41 -701 0
-651 41 0
-651 701 0
652 -651 -27 0
-652 651 0
-652 27 0
653 -947 -650 0
-653 947 0
-653 650 0
654 -757 -28 0
-654 757 0
-654 28 0
655 -654 -3 0
-655 654 0
-655 3 0
656 -948 -653 0
-656 948 0
-656 653 0
657 -769 -8 0
-657 769 0
-657 8 0
658 -657 -892 0
-658 657 0
-658 892 0
659 -949 -656 0
-659 949 0
-659 656 0
660 -31 -701 0
-660 31 0
-660 701 0
661 -660 -706 0
-661 660 0
-661 706 0
662 -950 -659 0
-662 950 0
-662 659 0
663 -40 -22 0
-663 40 0
-663 22 0
664 -663 -15 0
-664 663 0
-664 15 0
665 -951 -662 0
-665 951 0
-665 662 0
666 -551 -794 0
-666 551 0
-666 794 0
667 -952 -665 0
-667 952 0
-667 665 0
668 -422 -743 0
-668 422 0
-668 743 0
669 -953 -667 0
-669 953 0
-669 667 0
670 -769 -11 0
-670 769 0
-670 11 0
671 -670 -38 0
-671 670 0
-671 38 0
672 -954 -669 0
-672 954 0
-672 669 0
673 -832 -734 0
-673 832 0
-673 734 0
674 -673 -48 0
-674 673 0
-674 48 0
675 -955 -672 0
-675 955 0
-675 672 0
676 -41 -763 0
-676 41 0
-676 763 0
677 -676 -704 0
-677 676 0
-677 704 0
678 -956 -675 0
-678 956 0
-678 675 0
679 -21 -18 0
-679 21 0
-679 18 0
680 -679 -46 0
-680 679 0
-680 46 0
681 -957 -678 0
-681 957 0
-681 678 0
682 -727 -709 0
-682 727 0
-682 709 0
683 -682 -707 0
-683 682 0
-683 707 0
684 -958 -681 0
-684 958 0
-684 681 0
685 -41 -697 0
-685 41 0
-685 697 0
686 -685 -737 0
-686 685 0
-686 737 0
687 -959 -684 0
-687 959 0
-687 684 0
688 -20 -786 0
-688 20 0
-688 786 0
689 -688 -766 0
-689 688 0
-689 766 0
690 -960 -687 0
-690 960 0
-690 687 0
691 -724 -5 0
-691 724 0
-691 5 0
692 -691 -23 0
-692 691 0
-692 23 0
693 -961 -690 0
-693 961 0
-693 690 0
-694 -2 0
694 2 0
-695 -1 0
695 1 0
-696 -5 0
696 5 0
-697 -4 0
697 4 0
-698 -6 0
698 6 0
-699 -54 0
699 54 0
-700 -52 0
700 52 0
-701 -7 0
701 7 0
-702 -9 0
702 9 0
-703 -57 0
703 57 0
-704 -10 0
704 10 0
-705 -60 0
705 60 0
-706 -12 0
706 12 0
-707 -3 0
707 3 0
-708 -63 0
708 63 0
-709 -15 0
709 15 0
-710 -66 0
710 66 0
-711 -17 0
711 17 0
-712 -69 0
712 69 0
-713 -72 0
713 72 0
-714 -21 0
714 21 0
-715 -20 0
715 20 0
-716 -75 0
716 75 0
-717 -22 0
717 22 0
-718 -78 0
718 78 0
-719 -25 0
719 25 0
-720 -81 0
720 81 0
-721 -84 0
721 84 0
-722 -27 0
722 27 0
-723 -87 0
723 87 0
-724 -28 0
724 28 0
-725 -90 0
725 90 0
-726 -93 0
726 93 0
-727 -30 0
727 30 0
-728 -96 0
728 96 0
-729 -26 0
729 26 0
-730 -99 0
730 99 0
-731 -33 0
731 33 0
-732 -35 0
732 35 0
-733 -102 0
733 102 0
-734 -36 0
734 36 0
-735 -105 0
735 105 0
-736 -108 0
736 108 0
-737 -16 0
737 16 0
-738 -38 0
738 38 0
-739 -111 0
739 111 0
-740 -114 0
740 114 0
-741 -117 0
741 117 0
-742 -120 0
742 120 0
-743 -8 0
743 8 0
-744 -123 0
744 123 0
-745 -39 0
745 39 0
-746 -126 0
746 126 0
-747 -129 0
747 129 0
-748 -18 0
748 18 0
-749 -132 0
749 132 0
-750 -40 0
750 40 0
-751 -32 0
751 32 0
-752 -135 0
752 135 0
-753 -41 0
753 41 0
-754 -138 0
754 138 0
-755 -42 0
755 42 0
-756 -141 0
756 141 0
-757 -44 0
757 44 0
-758 -144 0
758 144 0
-759 -147 0
759 147 0
-760 -150 0
760 150 0
-761 -13 0
761 13 0
-762 -153 0
762 153 0
-763 -29 0
763 29 0
-764 -156 0
764 156 0
-765 -159 0
765 159 0
-766 -37 0
766 37 0
-767 -162 0
767 162 0
-768 -45 0
768 45 0
-769 -46 0
769 46 0
-770 -165 0
770 165 0
-771 -168 0
771 168 0
-772 -171 0
772 171 0
-773 -174 0
773 174 0
-774 -48 0
774 48 0
-775 -176 0
775 176 0
-776 -49 0
776 49 0
-777 -179 0
777 179 0
-778 -182 0
778 182 0
-779 -34 0
779 34 0
-780 -185 0
780 185 0
-781 -187 0
781 187 0
-782 -190 0
782 190 0
-783 -193 0
783 193 0
-784 -196 0
784 196 0
-785 -199 0
785 199 0
-786 -19 0
786 19 0
-787 -202 0
787 202 0
-788 -205 0
788 205 0
-789 -208 0
789 208 0
-790 -211 0
790 211 0
-791 -214 0
791 214 0
-792 -217 0
792 217 0
-793 -220 0
793 220 0
-794 -31 0
794 31 0
-795 -223 0
795 223 0
-796 -47 0
796 47 0
-797 -23 0
797 23 0
-798 -226 0
798 226 0
-799 -229 0
799 229 0
-800 -232 0
800 232 0
-801 -235 0
801 235 0
-802 -11 0
802 11 0
-803 -238 0
803 238 0
-804 -241 0
804 241 0
-805 -244 0
805 244 0
-806 -247 0
806 247 0
-807 -250 0
807 250 0
-808 -253 0
808 253 0
-809 -255 0
809 255 0
-810 -258 0
810 258 0
-811 -261 0
811 261 0
-812 -24 0
812 24 0
-813 -264 0
813 264 0
-814 -266 0
814 266 0
-815 -269 0
815 269 0
-816 -272 0
816 272 0
-817 -275 0
817 275 0
-818 -278 0
818 278 0
-819 -281 0
819 281 0
-820 -284 0
820 284 0
-821 -287 0
821 287 0
-822 -290 0
822 290 0
-823 -293 0
823 293 0
-824 -296 0
824 296 0
-825 -299 0
825 299 0
-826 -302 0
826 302 0
-827 -305 0
827 305 0
-828 -307 0
828 307 0
-829 -310 0
829 310 0
-830 -313 0
830 313 0
-831 -316 0
831 316 0
-832 -43 0
832 43 0
-833 -319 0
833 319 0
-834 -322 0
834 322 0
-835 -325 0
835 325 0
-836 -328 0
836 328 0
-837 -331 0
837 331 0
-838 -334 0
838 334 0
-839 -337 0
839 337 0
-840 -340 0
840 340 0
-841 -343 0
841 343 0
-842 -346 0
842 346 0
-843 -349 0
843 349 0
-844 -352 0
844 352 0
-845 -355 0
845 355 0
-846 -358 0
846 358 0
-847 -361 0
847 361 0
-848 -364 0
848 364 0
-849 -367 0
849 367 0
-850 -370 0
850 370 0
-851 -14 0
851 14 0
-852 -373 0
852 373 0
-853 -376 0
853 376 0
-854 -379 0
854 379 0
-855 -382 0
855 382 0
-856 -385 0
856 385 0
-857 -388 0
857 388 0
-858 -391 0
858 391 0
-859 -394 0
859 394 0
-860 -397 0
860 397 0
-861 -400 0
861 400 0
-862 -403 0
862 403 0
-863 -405 0
863 405 0
-864 -408 0
864 408 0
-865 -411 0
865 411 0
-866 -414 0
866 414 0
-867 -417 0
867 417 0
-868 -420 0
868 420 0
-869 -423 0
869 423 0
-870 -426 0
870 426 0
-871 -429 0
871 429 0
-872 -432 0
872 432 0
-873 -435 0
873 435 0
-874 -438 0
874 438 0
-875 -441 0
875 441 0
-876 -444 0
876 444 0
-877 -447 0
877 447 0
-878 -450 0
878 450 0
-879 -453 0
879 453 0
-880 -456 0
880 456 0
-881 -459 0
881 459 0
-882 -462 0
882 462 0
-883 -465 0
883 465 0
-884 -468 0
884 468 0
-885 -471 0
885 471 0
-886 -474 0
886 474 0
-887 -477 0
887 477 0
-888 -480 0
888 480 0
-889 -483 0
889 483 0
-890 -486 0
890 486 0
-891 -489 0
891 489 0
-892 -50 0
892 50 0
-893 -492 0
893 492 0
-894 -495 0
894 495 0
-895 -498 0
895 498 0
-896 -501 0
896 501 0
-897 -504 0
897 504 0
-898 -507 0
898 507 0
-899 -510 0
899 510 0
-900 -513 0
900 513 0
-901 -516 0
901 516 0
-902 -519 0
902 519 0
-903 -522 0
903 522 0
-904 -525 0
904 525 0
-905 -528 0
905 528 0
-906 -531 0
906 531 0
-907 -534 0
907 534 0
-908 -537 0
908 537 0
-909 -540 0
909 540 0
-910 -543 0
910 543 0
-911 -546 0
911 546 0
-912 -549 0
912 549 0
-913 -552 0
913 552 0
-914 -555 0
914 555 0
-915 -557 0
915 557 0
-916 -560 0
916 560 0
-917 -563 0
917 563 0
-918 -566 0
918 566 0
-919 -569 0
919 569 0
-920 -572 0
920 572 0
-921 -575 0
921 575 0
-922 -578 0
922 578 0
-923 -581 0
923 581 0
-924 -584 0
924 584 0
-925 -587 0
925 587 0
-926 -590 0
926 590 0
-927 -593 0
927 593 0
-928 -596 0
928 596 0
-929 -598 0
929 598 0
-930 -601 0
930 601 0
-931 -604 0
931 604 0
-932 -607 0
932 607 0
-933 -610 0
933 610 0
-934 -613 0
934 613 0
-935 -616 0
935 616 0
-936 -619 0
936 619 0
-937 -622 0
937 622 0
-938 -625 0
938 625 0
-939 -628 0
939 628 0
-940 -631 0
940 631 0
-941 -634 0
941 634 0
-942 -637 0
942 637 0
-943 -640 0
943 640 0
-944 -643 0
944 643 0
-945 -646 0
945 646 0
-946 -649 0
946 649 0
-947 -652 0
947 652 0
-948 -655 0
948 655 0
-949 -658 0
949 658 0
-950 -661 0
950 661 0
-951 -664 0
951 664 0
-952 -666 0
952 666 0
-953 -668 0
953 668 0
-954 -671 0
954 671 0
-955 -674 0
955 674 0
-956 -677 0
956 677 0
-957 -680 0
957 680 0
-958 -683 0
958 683 0
-959 -686 0
959 686 0
-960 -689 0
960 689 0
-961 -692 0
961 692 0
693 0
